% Generated by MiniZinc 2.9.3
% Solver library: /home/icwmmarijnisse/Pumpkin/minizinc/lib
% Command line invocation: minizinc --compile --fzn ./instance.fzn --ozn ./instance.ozn --solver pumpkin ../../../../benchmarks/models/rcpsp/rcpsp.mzn ../../../../benchmarks/models/rcpsp/pack045.dzn 

predicate pumpkin_cumulative(array [int] of var int: s,array [int] of int: d,array [int] of int: r,int: b);
array [1..2] of int: X_INTRODUCED_37_ = [1,-1];
array [1..18] of int: X_INTRODUCED_44_ = [1,3,1,3,1,3,2,2,2,2,1,3,3,2,3,2,2,2];
array [1..18] of int: X_INTRODUCED_45_ = [10,923,735,16,11,783,14,16,664,718,13,1018,610,12,16,17,1054,18];
array [1..18] of int: X_INTRODUCED_46_ = [2,2,2,2,2,2,2,2,2,2,2,2,2,2,2,2,2,2];
var 0..6647: X_INTRODUCED_16_;
var 0..6647: X_INTRODUCED_17_;
var 0..6647: X_INTRODUCED_18_;
var 0..6647: X_INTRODUCED_19_;
var 0..6647: X_INTRODUCED_20_;
var 0..6647: X_INTRODUCED_21_;
var 0..6647: X_INTRODUCED_22_;
var 0..6647: X_INTRODUCED_23_;
var 0..6647: X_INTRODUCED_24_;
var 0..6647: X_INTRODUCED_25_;
var 0..6647: X_INTRODUCED_26_;
var 0..6647: X_INTRODUCED_27_;
var 0..6647: X_INTRODUCED_28_;
var 0..6647: X_INTRODUCED_29_;
var 0..6647: X_INTRODUCED_30_;
var 0..6647: X_INTRODUCED_31_;
var 0..6647: X_INTRODUCED_32_;
var 0..6647: X_INTRODUCED_33_;
var 0..6648: Objective:: output_var;
array [1..18] of var int: Start:: output_array([1..18]) = [X_INTRODUCED_16_,X_INTRODUCED_17_,X_INTRODUCED_18_,X_INTRODUCED_19_,X_INTRODUCED_20_,X_INTRODUCED_21_,X_INTRODUCED_22_,X_INTRODUCED_23_,X_INTRODUCED_24_,X_INTRODUCED_25_,X_INTRODUCED_26_,X_INTRODUCED_27_,X_INTRODUCED_28_,X_INTRODUCED_29_,X_INTRODUCED_30_,X_INTRODUCED_31_,X_INTRODUCED_32_,X_INTRODUCED_33_];
array [1..19] of var int: X_INTRODUCED_58_ ::var_is_introduced  = [X_INTRODUCED_16_,X_INTRODUCED_17_,X_INTRODUCED_18_,X_INTRODUCED_19_,X_INTRODUCED_20_,X_INTRODUCED_21_,X_INTRODUCED_22_,X_INTRODUCED_23_,X_INTRODUCED_24_,X_INTRODUCED_25_,X_INTRODUCED_26_,X_INTRODUCED_27_,X_INTRODUCED_28_,X_INTRODUCED_29_,X_INTRODUCED_30_,X_INTRODUCED_31_,X_INTRODUCED_32_,X_INTRODUCED_33_,Objective];
constraint int_lin_le(X_INTRODUCED_37_,[X_INTRODUCED_16_,X_INTRODUCED_25_],-10);
constraint int_lin_le(X_INTRODUCED_37_,[X_INTRODUCED_17_,X_INTRODUCED_18_],-923);
constraint int_lin_le(X_INTRODUCED_37_,[X_INTRODUCED_17_,X_INTRODUCED_23_],-923);
constraint int_lin_le(X_INTRODUCED_37_,[X_INTRODUCED_18_,X_INTRODUCED_29_],-735);
constraint int_lin_le(X_INTRODUCED_37_,[X_INTRODUCED_18_,X_INTRODUCED_32_],-735);
constraint int_lin_le(X_INTRODUCED_37_,[X_INTRODUCED_21_,X_INTRODUCED_22_],-783);
constraint int_lin_le(X_INTRODUCED_37_,[X_INTRODUCED_22_,X_INTRODUCED_24_],-14);
constraint int_lin_le(X_INTRODUCED_37_,[X_INTRODUCED_22_,X_INTRODUCED_25_],-14);
constraint int_lin_le(X_INTRODUCED_37_,[X_INTRODUCED_23_,X_INTRODUCED_29_],-16);
constraint int_lin_le(X_INTRODUCED_37_,[X_INTRODUCED_25_,X_INTRODUCED_31_],-718);
constraint pumpkin_cumulative(Start,X_INTRODUCED_45_,X_INTRODUCED_44_,7);
constraint pumpkin_cumulative(Start,X_INTRODUCED_45_,X_INTRODUCED_46_,7);
constraint pumpkin_cumulative(Start,X_INTRODUCED_45_,X_INTRODUCED_46_,8);
constraint int_lin_le(X_INTRODUCED_37_,[X_INTRODUCED_19_,Objective],-16);
constraint int_lin_le(X_INTRODUCED_37_,[X_INTRODUCED_20_,Objective],-11);
constraint int_lin_le(X_INTRODUCED_37_,[X_INTRODUCED_24_,Objective],-664);
constraint int_lin_le(X_INTRODUCED_37_,[X_INTRODUCED_26_,Objective],-13);
constraint int_lin_le(X_INTRODUCED_37_,[X_INTRODUCED_27_,Objective],-1018);
constraint int_lin_le(X_INTRODUCED_37_,[X_INTRODUCED_28_,Objective],-610);
constraint int_lin_le(X_INTRODUCED_37_,[X_INTRODUCED_29_,Objective],-12);
constraint int_lin_le(X_INTRODUCED_37_,[X_INTRODUCED_30_,Objective],-16);
constraint int_lin_le(X_INTRODUCED_37_,[X_INTRODUCED_31_,Objective],-17);
constraint int_lin_le(X_INTRODUCED_37_,[X_INTRODUCED_32_,Objective],-1054);
constraint int_lin_le(X_INTRODUCED_37_,[X_INTRODUCED_33_,Objective],-18);
solve :: int_search(X_INTRODUCED_58_,smallest,indomain_min,complete) minimize Objective;
